K=4;
N=8;
P=[69 8 90 93];
R=[46 6 25 30];
A=[6 4 4 3];
C=[40 24 19 27];
M=[
[ 0 50 50 0 24 50 30 50 ]
[ 50 0 49 50 17 28 10 42 ]
[ 50 49 0 25 50 50 50 50 ]
[ 0 50 25 0 50 33 2 50 ]
[ 24 17 50 50 0 50 32 37 ]
[ 50 28 50 33 50 0 41 50 ]
[ 30 10 50 2 32 41 0 50 ]
[ 50 42 50 50 37 50 50 0 ]
];
